p edge 30 229 20
v 1 5
v 1 29
v 3 7 8 12
v 1 16
v 3 6 15 25
v 1 17
v 1 18
v 2 21 30
v 3 2 11 27
v 1 10
v 2 4 28
v 1 23
v 1 20
v 1 3
v 2 1 22
v 2 13 24
v 1 26
v 1 19
v 1 14
v 1 9
e 1 2
e 1 3
e 1 4
e 1 6
e 1 10
e 1 12
e 1 18
e 1 19
e 1 22
e 1 23
e 1 25
e 2 5
e 2 7
e 2 14
e 2 15
e 2 16
e 2 17
e 2 18
e 2 20
e 2 22
e 2 23
e 2 27
e 2 28
e 2 29
e 3 5
e 3 7
e 3 10
e 3 11
e 3 13
e 3 14
e 3 20
e 3 23
e 3 26
e 3 27
e 3 28
e 3 30
e 4 5
e 4 7
e 4 8
e 4 9
e 4 10
e 4 12
e 4 13
e 4 20
e 4 21
e 4 22
e 4 23
e 4 24
e 4 25
e 4 27
e 4 29
e 4 30
e 5 7
e 5 9
e 5 10
e 5 13
e 5 14
e 5 16
e 5 18
e 5 19
e 5 21
e 5 22
e 5 23
e 5 24
e 5 26
e 5 27
e 5 28
e 5 29
e 5 30
e 6 7
e 6 8
e 6 12
e 6 14
e 6 15
e 6 16
e 6 17
e 6 19
e 6 21
e 6 25
e 6 27
e 6 29
e 7 9
e 7 10
e 7 11
e 7 12
e 7 14
e 7 15
e 7 16
e 7 22
e 7 23
e 7 25
e 7 27
e 7 28
e 7 29
e 7 30
e 8 11
e 8 13
e 8 16
e 8 18
e 8 20
e 8 22
e 8 23
e 8 24
e 8 25
e 8 27
e 8 28
e 8 29
e 9 10
e 9 12
e 9 14
e 9 16
e 9 19
e 9 20
e 9 23
e 9 24
e 9 27
e 9 29
e 9 30
e 10 14
e 10 15
e 10 16
e 10 17
e 10 20
e 10 22
e 10 24
e 10 25
e 10 26
e 10 27
e 11 13
e 11 14
e 11 17
e 11 18
e 11 20
e 11 21
e 11 23
e 11 24
e 11 25
e 11 28
e 11 29
e 12 14
e 12 15
e 12 16
e 12 17
e 12 21
e 12 22
e 12 23
e 12 28
e 12 30
e 13 15
e 13 17
e 13 19
e 13 23
e 13 27
e 13 28
e 13 29
e 14 15
e 14 18
e 14 21
e 14 25
e 14 26
e 14 28
e 14 29
e 15 16
e 15 17
e 15 19
e 15 20
e 15 27
e 15 28
e 15 30
e 16 18
e 16 19
e 16 22
e 16 24
e 16 27
e 16 28
e 16 29
e 16 30
e 17 20
e 17 21
e 17 22
e 17 24
e 17 25
e 17 26
e 17 27
e 17 28
e 17 29
e 18 19
e 18 22
e 18 26
e 18 27
e 19 24
e 19 26
e 19 28
e 19 29
e 19 30
e 20 21
e 20 22
e 20 23
e 20 24
e 20 25
e 20 28
e 20 29
e 20 30
e 21 22
e 21 23
e 21 25
e 21 26
e 21 29
e 21 30
e 22 23
e 22 24
e 22 25
e 22 27
e 23 25
e 23 27
e 23 28
e 23 29
e 24 25
e 24 27
e 24 28
e 25 27
e 25 29
e 25 30
e 26 28
e 26 29
e 26 30
e 27 28
e 27 30
e 28 30
